\ Model Baseline
\ LP format - for model browsing. Use MPS format to capture full model detail.
Maximize
  obj_Raf_LOW
Subject To
 sumToOne_V0: V0_000 + V0_001 + V0_010 + V0_011 + V0_100 + V0_101 + V0_110
   + V0_111 = 1
 sumToOne_V1: V1_000 + V1_001 + V1_010 + V1_011 + V1_100 + V1_101 + V1_110
   + V1_111 = 1
 c_PKC_LOW: V0_100 + V0_101 + V0_110 + V0_111 = 0.42313152
 c_PKC_AVG: V0_010 + V0_011 + V0_110 + V0_111 = 0.4816392
 c_PKC_HIGH: V0_001 + V0_011 + V0_101 + V0_111 = 0.09522928
 c_Plcg_LOW: V1_100 + V1_101 + V1_110 + V1_111 = 0.81213356
 c_Plcg_AVG: V1_010 + V1_011 + V1_110 + V1_111 = 0.08337962
 c_Plcg_HIGH: V1_001 + V1_011 + V1_101 + V1_111 = 0.10448682
 c_aux0: - V0_110 + aux0 = 0
 c_aux1: - V0_111 + aux1 = 0
 R10: - aux0 - aux1 + C18 = 0
 R11: C18 = 0
 c_aux2: - V0_101 + aux2 = 0
 c_aux3: - V0_111 + aux3 = 0
 R14: - aux2 - aux3 + C21 = 0
 R15: C21 = 0
 c_aux4: - V1_110 + aux4 = 0
 c_aux5: - V1_111 + aux5 = 0
 R18: - aux4 - aux5 + C24 = 0
 R19: C24 = 0
 c_aux6: - V1_101 + aux6 = 0
 c_aux7: - V1_111 + aux7 = 0
 R22: - aux6 - aux7 + C27 = 0
 R23: C27 = 0
 c_aux8: - 5.9195523490734381e-04 V0_100 + aux8 = 0
 c_aux9: - 5.9195523490734381e-04 V0_101 + aux9 = 0
 c_aux10: - 5.9195523490734381e-04 V0_110 + aux10 = 0
 c_aux11: - 5.9195523490734381e-04 V0_111 + aux11 = 0
 c_obj_Akt_LOW: - aux8 - aux9 - aux10 - aux11 + obj_Akt_LOW = 0
 c_aux12: - 2.8868574344025256e-04 V0_100 + aux12 = 0
 c_aux13: - 2.8868574344025256e-04 V0_101 + aux13 = 0
 c_aux14: - 2.8868574344025256e-04 V0_110 + aux14 = 0
 c_aux15: - 2.8868574344025256e-04 V0_111 + aux15 = 0
 c_obj_Akt_AVG: - aux12 - aux13 - aux14 - aux15 + obj_Akt_AVG = 0
 c_aux16: - 9.05823e-08 V0_100 + aux16 = 0
 c_aux17: - 9.05823e-08 V0_101 + aux17 = 0
 c_aux18: - 9.05823e-08 V0_110 + aux18 = 0
 c_aux19: - 9.05823e-08 V0_111 + aux19 = 0
 c_obj_Akt_HIGH: - aux16 - aux17 - aux18 - aux19 + obj_Akt_HIGH = 0
 c_aux20: - 0.00227917557360941 V0_100 + aux20 = 0
 c_aux21: - 0.00227917557360941 V0_101 + aux21 = 0
 c_aux22: - 0.00227917557360941 V0_110 + aux22 = 0
 c_aux23: - 0.00227917557360941 V0_111 + aux23 = 0
 c_obj_Erk_LOW: - aux20 - aux21 - aux22 - aux23 + obj_Erk_LOW = 0
 c_aux24: - 3.7174851477810348e-04 V0_100 + aux24 = 0
 c_aux25: - 3.7174851477810348e-04 V0_101 + aux25 = 0
 c_aux26: - 3.7174851477810348e-04 V0_110 + aux26 = 0
 c_aux27: - 3.7174851477810348e-04 V0_111 + aux27 = 0
 c_obj_Erk_AVG: - aux24 - aux25 - aux26 - aux27 + obj_Erk_AVG = 0
 c_aux28: - 2.88403e-05 V0_100 + aux28 = 0
 c_aux29: - 2.88403e-05 V0_101 + aux29 = 0
 c_aux30: - 2.88403e-05 V0_110 + aux30 = 0
 c_aux31: - 2.88403e-05 V0_111 + aux31 = 0
 c_obj_Erk_HIGH: - aux28 - aux29 - aux30 - aux31 + obj_Erk_HIGH = 0
 c_aux32: - 0.1120348767981 V0_100 + aux32 = 0
 c_aux33: - 0.1120348767981 V0_101 + aux33 = 0
 c_aux34: - 0.1120348767981 V0_110 + aux34 = 0
 c_aux35: - 0.1120348767981 V0_111 + aux35 = 0
 c_obj_Jnk_LOW: - aux32 - aux33 - aux34 - aux35 + obj_Jnk_LOW = 0
 c_aux36: - 0.09496951522455 V0_100 + aux36 = 0
 c_aux37: - 0.09496951522455 V0_101 + aux37 = 0
 c_aux38: - 0.09496951522455 V0_110 + aux38 = 0
 c_aux39: - 0.09496951522455 V0_111 + aux39 = 0
 c_obj_Jnk_AVG: - aux36 - aux37 - aux38 - aux39 + obj_Jnk_AVG = 0
 c_aux40: - 0.17942110797735 V0_100 + aux40 = 0
 c_aux41: - 0.17942110797735 V0_101 + aux41 = 0
 c_aux42: - 0.17942110797735 V0_110 + aux42 = 0
 c_aux43: - 0.17942110797735 V0_111 + aux43 = 0
 c_obj_Jnk_HIGH: - aux40 - aux41 - aux42 - aux43 + obj_Jnk_HIGH = 0
 c_aux44: - 0.00693475030898612 V0_100 + aux44 = 0
 c_aux45: - 0.00693475030898612 V0_101 + aux45 = 0
 c_aux46: - 0.00693475030898612 V0_110 + aux46 = 0
 c_aux47: - 0.00693475030898612 V0_111 + aux47 = 0
 c_obj_Mek_LOW: - aux44 - aux45 - aux46 - aux47 + obj_Mek_LOW = 0
 c_aux48: - 0.00236933823067118 V0_100 + aux48 = 0
 c_aux49: - 0.00236933823067118 V0_101 + aux49 = 0
 c_aux50: - 0.00236933823067118 V0_110 + aux50 = 0
 c_aux51: - 0.00236933823067118 V0_111 + aux51 = 0
 c_obj_Mek_AVG: - aux48 - aux49 - aux50 - aux51 + obj_Mek_AVG = 0
 c_aux52: - 2.08752e-06 V0_100 + aux52 = 0
 c_aux53: - 2.08752e-06 V0_101 + aux53 = 0
 c_aux54: - 2.08752e-06 V0_110 + aux54 = 0
 c_aux55: - 2.08752e-06 V0_111 + aux55 = 0
 c_obj_Mek_HIGH: - aux52 - aux53 - aux54 - aux55 + obj_Mek_HIGH = 0
 c_aux56: - 0.118598464621545 V0_100 + aux56 = 0
 c_aux57: - 0.118598464621545 V0_101 + aux57 = 0
 c_aux58: - 0.118598464621545 V0_110 + aux58 = 0
 c_aux59: - 0.118598464621545 V0_111 + aux59 = 0
 c_obj_P38_LOW: - aux56 - aux57 - aux58 - aux59 + obj_P38_LOW = 0
 c_aux60: - 0.02495786282724 V0_100 + aux60 = 0
 c_aux61: - 0.02495786282724 V0_101 + aux61 = 0
 c_aux62: - 0.02495786282724 V0_110 + aux62 = 0
 c_aux63: - 0.02495786282724 V0_111 + aux63 = 0
 c_obj_P38_AVG: - aux60 - aux61 - aux62 - aux63 + obj_P38_AVG = 0
 c_aux64: - 0.242869172551215 V0_100 + aux64 = 0
 c_aux65: - 0.242869172551215 V0_101 + aux65 = 0
 c_aux66: - 0.242869172551215 V0_110 + aux66 = 0
 c_aux67: - 0.242869172551215 V0_111 + aux67 = 0
 c_obj_P38_HIGH: - aux64 - aux65 - aux66 - aux67 + obj_P38_HIGH = 0
 c_aux68: - 0.2177301641365 V1_100 + aux68 = 0
 c_aux69: - 0.2177301641365 V1_101 + aux69 = 0
 c_aux70: - 0.2177301641365 V1_110 + aux70 = 0
 c_aux71: - 0.2177301641365 V1_111 + aux71 = 0
 c_obj_PIP2_LOW: - aux68 - aux69 - aux70 - aux71 + obj_PIP2_LOW = 0
 c_aux72: - 6.92386297127e-04 V1_100 + aux72 = 0
 c_aux73: - 6.92386297127e-04 V1_101 + aux73 = 0
 c_aux74: - 6.92386297127e-04 V1_110 + aux74 = 0
 c_aux75: - 6.92386297127e-04 V1_111 + aux75 = 0
 c_obj_PIP2_AVG: - aux72 - aux73 - aux74 - aux75 + obj_PIP2_AVG = 0
 c_aux76: - 8.44374e-06 V1_100 + aux76 = 0
 c_aux77: - 8.44374e-06 V1_101 + aux77 = 0
 c_aux78: - 8.44374e-06 V1_110 + aux78 = 0
 c_aux79: - 8.44374e-06 V1_111 + aux79 = 0
 c_obj_PIP2_HIGH: - aux76 - aux77 - aux78 - aux79 + obj_PIP2_HIGH = 0
 c_aux80: - 0.218431 V1_100 + aux80 = 0
 c_aux81: - 0.218431 V1_101 + aux81 = 0
 c_aux82: - 0.218431 V1_110 + aux82 = 0
 c_aux83: - 0.218431 V1_111 + aux83 = 0
 c_obj_PIP3_LOW: - aux80 - aux81 - aux82 - aux83 + obj_PIP3_LOW = 0
 c_aux84: - 0.4473238 V1_100 + aux84 = 0
 c_aux85: - 0.4473238 V1_101 + aux85 = 0
 c_aux86: - 0.4473238 V1_110 + aux86 = 0
 c_aux87: - 0.4473238 V1_111 + aux87 = 0
 c_obj_PIP3_AVG: - aux84 - aux85 - aux86 - aux87 + obj_PIP3_AVG = 0
 c_aux88: - 0.3342453 V1_100 + aux88 = 0
 c_aux89: - 0.3342453 V1_101 + aux89 = 0
 c_aux90: - 0.3342453 V1_110 + aux90 = 0
 c_aux91: - 0.3342453 V1_111 + aux91 = 0
 c_obj_PIP3_HIGH: - aux88 - aux89 - aux90 - aux91 + obj_PIP3_HIGH = 0
 c_aux92: - 0.3864255 V0_100 + aux92 = 0
 c_aux93: - 0.3864255 V0_101 + aux93 = 0
 c_aux94: - 0.3864255 V0_110 + aux94 = 0
 c_aux95: - 0.3864255 V0_111 + aux95 = 0
 c_obj_PKA_LOW: - aux92 - aux93 - aux94 - aux95 + obj_PKA_LOW = 0
 c_aux96: - 0.3794243 V0_100 + aux96 = 0
 c_aux97: - 0.3794243 V0_101 + aux97 = 0
 c_aux98: - 0.3794243 V0_110 + aux98 = 0
 c_aux99: - 0.3794243 V0_111 + aux99 = 0
 c_obj_PKA_AVG: - aux96 - aux97 - aux98 - aux99 + obj_PKA_AVG = 0
 c_aux100: - 0.2341501 V0_100 + aux100 = 0
 c_aux101: - 0.2341501 V0_101 + aux101 = 0
 c_aux102: - 0.2341501 V0_110 + aux102 = 0
 c_aux103: - 0.2341501 V0_111 + aux103 = 0
 c_obj_PKA_HIGH: - aux100 - aux101 - aux102 - aux103 + obj_PKA_HIGH = 0
 c_aux104: - 0.02408271726888 V0_100 + aux104 = 0
 c_aux105: - 0.02408271726888 V0_101 + aux105 = 0
 c_aux106: - 0.02408271726888 V0_110 + aux106 = 0
 c_aux107: - 0.02408271726888 V0_111 + aux107 = 0
 c_obj_Raf_LOW: - aux104 - aux105 - aux106 - aux107 + obj_Raf_LOW = 0
 c_aux108: - 0.05690068343589 V0_100 + aux108 = 0
 c_aux109: - 0.05690068343589 V0_101 + aux109 = 0
 c_aux110: - 0.05690068343589 V0_110 + aux110 = 0
 c_aux111: - 0.05690068343589 V0_111 + aux111 = 0
 c_obj_Raf_AVG: - aux108 - aux109 - aux110 - aux111 + obj_Raf_AVG = 0
 c_aux112: - 0.30544209929523 V0_100 + aux112 = 0
 c_aux113: - 0.30544209929523 V0_101 + aux113 = 0
 c_aux114: - 0.30544209929523 V0_110 + aux114 = 0
 c_aux115: - 0.30544209929523 V0_111 + aux115 = 0
 c_obj_Raf_HIGH: - aux112 - aux113 - aux114 - aux115 + obj_Raf_HIGH = 0
Bounds
 V0_000 <= 1
 V0_001 <= 1
 V0_010 <= 1
 V0_011 <= 1
 V0_100 <= 1
 V0_101 <= 1
 V0_110 <= 1
 V0_111 <= 1
 V1_000 <= 1
 V1_001 <= 1
 V1_010 <= 1
 V1_011 <= 1
 V1_100 <= 1
 V1_101 <= 1
 V1_110 <= 1
 V1_111 <= 1
 aux0 <= 1
 aux1 <= 1
 C18 <= 1
 aux2 <= 1
 aux3 <= 1
 C21 <= 1
 aux4 <= 1
 aux5 <= 1
 C24 <= 1
 aux6 <= 1
 aux7 <= 1
 C27 <= 1
 aux8 <= 1
 aux9 <= 1
 aux10 <= 1
 aux11 <= 1
 obj_Akt_LOW <= 1
 aux12 <= 1
 aux13 <= 1
 aux14 <= 1
 aux15 <= 1
 obj_Akt_AVG <= 1
 aux16 <= 1
 aux17 <= 1
 aux18 <= 1
 aux19 <= 1
 obj_Akt_HIGH <= 1
 aux20 <= 1
 aux21 <= 1
 aux22 <= 1
 aux23 <= 1
 obj_Erk_LOW <= 1
 aux24 <= 1
 aux25 <= 1
 aux26 <= 1
 aux27 <= 1
 obj_Erk_AVG <= 1
 aux28 <= 1
 aux29 <= 1
 aux30 <= 1
 aux31 <= 1
 obj_Erk_HIGH <= 1
 aux32 <= 1
 aux33 <= 1
 aux34 <= 1
 aux35 <= 1
 obj_Jnk_LOW <= 1
 aux36 <= 1
 aux37 <= 1
 aux38 <= 1
 aux39 <= 1
 obj_Jnk_AVG <= 1
 aux40 <= 1
 aux41 <= 1
 aux42 <= 1
 aux43 <= 1
 obj_Jnk_HIGH <= 1
 aux44 <= 1
 aux45 <= 1
 aux46 <= 1
 aux47 <= 1
 obj_Mek_LOW <= 1
 aux48 <= 1
 aux49 <= 1
 aux50 <= 1
 aux51 <= 1
 obj_Mek_AVG <= 1
 aux52 <= 1
 aux53 <= 1
 aux54 <= 1
 aux55 <= 1
 obj_Mek_HIGH <= 1
 aux56 <= 1
 aux57 <= 1
 aux58 <= 1
 aux59 <= 1
 obj_P38_LOW <= 1
 aux60 <= 1
 aux61 <= 1
 aux62 <= 1
 aux63 <= 1
 obj_P38_AVG <= 1
 aux64 <= 1
 aux65 <= 1
 aux66 <= 1
 aux67 <= 1
 obj_P38_HIGH <= 1
 aux68 <= 1
 aux69 <= 1
 aux70 <= 1
 aux71 <= 1
 obj_PIP2_LOW <= 1
 aux72 <= 1
 aux73 <= 1
 aux74 <= 1
 aux75 <= 1
 obj_PIP2_AVG <= 1
 aux76 <= 1
 aux77 <= 1
 aux78 <= 1
 aux79 <= 1
 obj_PIP2_HIGH <= 1
 aux80 <= 1
 aux81 <= 1
 aux82 <= 1
 aux83 <= 1
 obj_PIP3_LOW <= 1
 aux84 <= 1
 aux85 <= 1
 aux86 <= 1
 aux87 <= 1
 obj_PIP3_AVG <= 1
 aux88 <= 1
 aux89 <= 1
 aux90 <= 1
 aux91 <= 1
 obj_PIP3_HIGH <= 1
 aux92 <= 1
 aux93 <= 1
 aux94 <= 1
 aux95 <= 1
 obj_PKA_LOW <= 1
 aux96 <= 1
 aux97 <= 1
 aux98 <= 1
 aux99 <= 1
 obj_PKA_AVG <= 1
 aux100 <= 1
 aux101 <= 1
 aux102 <= 1
 aux103 <= 1
 obj_PKA_HIGH <= 1
 aux104 <= 1
 aux105 <= 1
 aux106 <= 1
 aux107 <= 1
 obj_Raf_LOW <= 1
 aux108 <= 1
 aux109 <= 1
 aux110 <= 1
 aux111 <= 1
 obj_Raf_AVG <= 1
 aux112 <= 1
 aux113 <= 1
 aux114 <= 1
 aux115 <= 1
 obj_Raf_HIGH <= 1
End
